50 25
   1   -1    4   22    3    2   18   11    7   12    1   19    9    6   15   22   15    9   21    5    9   21    8   11    3   14   11   10   15   12    7   12   12   21    9   10   19   16   15   21   -1    6    4   21   13   12   -1   15   -1    2 
   0    1   11   11    2   -1   18    0   15   11   17    1   22   13   18    3   -1   -1   -1   13   -1   12   -1   18   12    2    1   16    6    4   16   13   20    3   -1   -1    7   -1   20    1    9   -1   21    9    5   -1   11   20   20   12 
   0    0    1    7   15   -1    5   20   18    3   12   -1    1   20   19    6   20    5    5    9   20   -1   16   10    2   19   11    4   14   18    9   10    4    0   -1    6    9   22    2    5    1   -1   12    1    8   -1   -1   14    2   -1 
   0    0    0    1   -1   21   22    8    0    9   -1    6    3   23   16   -1    6   -1   14   23   -1   17   11   20   20   -1   19   15   -1   21   19    9   13   23   19   -1    4   24   13   16    1    9   11   12   10    0   22   21    6   -1 
   0    0    0    0    1   17   22   -1   21   -1   -1   -1   18   -1   -1    0   16   16    5   -1   14    5    5    6    2   11   -1   10   16   -1   18    8    7   20   -1   -1   -1    5   18    8   22   15    5   17   -1   15    8   -1   14   -1 
   0    0    0    0    0    1    0   22   -1   -1   -1    6    4   -1    9   -1    3    1   -1   20    9   -1   21    4    7   23    5   19   21   22   11   -1   13    6   -1   14   23   14   23   20   -1   21   23    5    6   11   -1    2   -1   12 
   0    0    0    0    0    0    1   22    4    0    2    2    5   16   19   10   18    1    4   23   17   18   24   10    7   13   12    0    7   12   16   10   21    0    3   -1    8   22    0   -1   11   14    8    1    7    1    6   -1    7   21 
   0    0    0    0    0    0    0    1   18    7   17   10   19   23   16   21   20   10    5   -1   -1   -1   21   -1   11   14   11   17   12   16    4   -1   15   13    4    6    8   21   -1   12    9    3    6   16   -1   -1   16   23   13   24 
   0    0    0    0    0    0    0    0    1   23    8   20    6    4   -1   23   -1    2   -1    7   12    1    6   20    5   21   21    1   12   11   -1    2   18   12   -1   -1   21   17   19   -1   23    1   17   20    3   15    4    2    3   16 
   0    0    0    0    0    0    0    0    0    1    6   23   -1    9   17   20   16   -1    8    5    9    2   -1    6   17   -1    8   10   17    5   21   13   19   14   14    2   13   20   17   19   10   12   -1   20    4   18    4   19   -1   -1 
   0    0    0    0    0    0    0    0    0    0    1   -1    5    1    0   16   20   -1    9    5   24   24   19   22   11   20   16   10    0   14   24    5   -1    1   -1   11    1    3    1   13    5   12    0    9    7    4    7   11   21   14 
   0    0    0    0    0    0    0    0    0    0    0    1    0   10    9    4   22   -1   24   17   15   10   24   11   -1   19   20   22    3   12   -1    5   18    8   -1   -1   14   16   -1   -1    2   -1   22   -1   18    4   10   24   12   11 
   0    0    0    0    0    0    0    0    0    0    0    0    1    2   21   -1   -1   15   -1   13   14    1   18   -1   22    6    9    9   -1   20    8   -1   17   -1   -1   -1    7    4   12    9    1    8   -1    0   10   10   24    7   21    2 
   0    0    0    0    0    0    0    0    0    0    0    0    0    1   15   12   13    2    3   14   13    7   12    7   -1   19   14    6   -1   -1    9   22   -1   18   -1   21   15    7    4   11   -1   17   15   -1   23    9   18   14   20   19 
   0    0    0    0    0    0    0    0    0    0    0    0    0    0    1   -1   22   -1    0   23    0   -1   19   18   18    8   10    7   17    6   10   14   22    0   11    0   12   -1    8   20   20   10    3   19   13    2   15   14   -1    8 
   0    0    0    0    0    0    0    0    0    0    0    0    0    0    0    1    5   -1    5   18    4    0    9   19   22   24   12    4    6   11   18    0   -1   12    6    7   23   15   20   16    0   20   -1   22   20    7   17   13    4   18 
   0    0    0    0    0    0    0    0    0    0    0    0    0    0    0    0    1   -1   -1   18    3   -1    1   22   23   -1   21    1   -1   24   23    7   20   10    5    1    6   24   18    6    4   21   16    5   -1    6   18   17    2   24 
   0    0    0    0    0    0    0    0    0    0    0    0    0    0    0    0    0    1   20   17   16   22   -1   24   -1   10   23    9   16   24   20    4   12   16    0    1    2    4   17   -1   -1   -1    4   24   -1   22   15    0   -1   19 
   0    0    0    0    0    0    0    0    0    0    0    0    0    0    0    0    0    0    1   16   -1    9    7   21   13   20   -1   13   11   24   -1   16   21    7   19    4   18    1    1    7   20   20   22   16   -1   18   -1   -1   -1   -1 
   0    0    0    0    0    0    0    0    0    0    0    0    0    0    0    0    0    0    0    1   12    7   -1    6   21    0    8    2   -1   15    7   17   21   -1    3    2   23   16    2   -1   11   16   18    1   -1   -1   23   19   -1    7 
   0    0    0    0    0    0    0    0    0    0    0    0    0    0    0    0    0    0    0    0    0   -1   22   -1    6   12   21   14    9   11    9    6   12   19   21   -1   11    0   22   23   15   17   13    5   10   18    4   23   16   17 
   0    0    0    0    0    0    0    0    0    0    0    0    0    0    0    0    0    0    0    0    0    0    5   -1    1   15   10   19   10    8   14    4   11    2   23    9   11   -1    0    2    0   18    1   -1   11   17   -1   14   22    6 
   0    0    0    0    0    0    0    0    0    0    0    0    0    0    0    0    0    0    0    0    0    0    0    5   15   -1   -1   -1   14   -1    5   -1   13    1   23    6   -1   11   -1   11   -1   10    3   -1   20   19   15   -1    6   18 
   0    0    0    0    0    0    0    0    0    0    0    0    0    0    0    0    0    0    0    0    0    0    0    0    4    0    7   -1    7   20    9   -1    6    0    5    2   23   -1    7    9   -1   14   -1    0   15    6   18   20    1    6 
   0    0    0    0    0    0    0    0    0    0    0    0    0    0    0    0    0    0    0    0    0    0    0    0    0   24    8   19    4    6    1    5    2    0   -1    0   -1   -1   -1   -1    2   -1   11   12    0    4   12   17   -1   19 
   0    0    0    0    0    0    0    0    0    0    0    0    0    0    0    0    0    0    0    0    0    0    0    0    0    0   19    2   -1    5   -1   12   23   14   -1   24    9    1    7   22    6   -1    8   -1   -1   20   19   13   12   13 
   0    0    0    0    0    0    0    0    0    0    0    0    0    0    0    0    0    0    0    0    0    0    0    0    0    0    0   20   -1   -1    2   16    7   16    4   24    1   -1    7    4   -1   13   20   15    6    4    2    7    6    9 
   0    0    0    0    0    0    0    0    0    0    0    0    0    0    0    0    0    0    0    0    0    0    0    0    0    0    0    0   10   21   -1   -1   -1   11    9   -1   11   -1    8   22    8    3   24    3   -1   20   18   -1   12   -1 
   0    0    0    0    0    0    0    0    0    0    0    0    0    0    0    0    0    0    0    0    0    0    0    0    0    0    0    0    0   11    9    8    0   12   21   -1   14    4    5   -1   23    0   -1   14   15   18   20   23    1   23 
   0    0    0    0    0    0    0    0    0    0    0    0    0    0    0    0    0    0    0    0    0    0    0    0    0    0    0    0    0    0   17   13    2   22   12   23    3    1   22    6   11    2   10    3   12    6   11    9   14   14 
   0    0    0    0    0    0    0    0    0    0    0    0    0    0    0    0    0    0    0    0    0    0    0    0    0    0    0    0    0    0    0   19   11   -1   -1    2    5   -1   -1   17   21    8   19    3   22   16   -1   10   -1    7 
   0    0    0    0    0    0    0    0    0    0    0    0    0    0    0    0    0    0    0    0    0    0    0    0    0    0    0    0    0    0    0    0   21    2   20   -1    8    7   22   24    1    9   10   15    8    1    6   -1   -1   20 
   0    0    0    0    0    0    0    0    0    0    0    0    0    0    0    0    0    0    0    0    0    0    0    0    0    0    0    0    0    0    0    0    0   18   11    2    3    7    5    6   16    1   17   -1   19   11   -1    5    9   13 
   0    0    0    0    0    0    0    0    0    0    0    0    0    0    0    0    0    0    0    0    0    0    0    0    0    0    0    0    0    0    0    0    0    0    3   -1    9    2    0   -1    7   -1   11   24    0    0   11    2   22    5 
   0    0    0    0    0    0    0    0    0    0    0    0    0    0    0    0    0    0    0    0    0    0    0    0    0    0    0    0    0    0    0    0    0    0    0   21   23   24   18    9    3   24   13    1   11    9   -1   11   12    2 
   0    0    0    0    0    0    0    0    0    0    0    0    0    0    0    0    0    0    0    0    0    0    0    0    0    0    0    0    0    0    0    0    0    0    0    0   -1    9    8    5   -1   13    4   14   -1    9   -1    6   13    4 
   0    0    0    0    0    0    0    0    0    0    0    0    0    0    0    0    0    0    0    0    0    0    0    0    0    0    0    0    0    0    0    0    0    0    0    0    0   -1    0   -1   24   -1    2   20    4   21   19   10    0   -1 
   0    0    0    0    0    0    0    0    0    0    0    0    0    0    0    0    0    0    0    0    0    0    0    0    0    0    0    0    0    0    0    0    0    0    0    0    0    0   23   23   12   12    4    0   -1    2   18   20   -1    6 
   0    0    0    0    0    0    0    0    0    0    0    0    0    0    0    0    0    0    0    0    0    0    0    0    0    0    0    0    0    0    0    0    0    0    0    0    0    0    0   -1    9    7   24   13    4    5   22   11   18    4 
   0    0    0    0    0    0    0    0    0    0    0    0    0    0    0    0    0    0    0    0    0    0    0    0    0    0    0    0    0    0    0    0    0    0    0    0    0    0    0    0   -1   18   12    0   10    5   -1   -1   -1    8 
   0    0    0    0    0    0    0    0    0    0    0    0    0    0    0    0    0    0    0    0    0    0    0    0    0    0    0    0    0    0    0    0    0    0    0    0    0    0    0    0    0   14    9   10    3    5   21   -1   12   13 
   0    0    0    0    0    0    0    0    0    0    0    0    0    0    0    0    0    0    0    0    0    0    0    0    0    0    0    0    0    0    0    0    0    0    0    0    0    0    0    0    0    0    9   18    6   19    5   12    8   14 
   0    0    0    0    0    0    0    0    0    0    0    0    0    0    0    0    0    0    0    0    0    0    0    0    0    0    0    0    0    0    0    0    0    0    0    0    0    0    0    0    0    0    0    6   -1   12   -1   -1   15   12 
   0    0    0    0    0    0    0    0    0    0    0    0    0    0    0    0    0    0    0    0    0    0    0    0    0    0    0    0    0    0    0    0    0    0    0    0    0    0    0    0    0    0    0    0   -1   -1   18   22   -1   23 
   0    0    0    0    0    0    0    0    0    0    0    0    0    0    0    0    0    0    0    0    0    0    0    0    0    0    0    0    0    0    0    0    0    0    0    0    0    0    0    0    0    0    0    0    0   14    7    7    4   10 
   0    0    0    0    0    0    0    0    0    0    0    0    0    0    0    0    0    0    0    0    0    0    0    0    0    0    0    0    0    0    0    0    0    0    0    0    0    0    0    0    0    0    0    0    0    0   -1   17    4   17 
   0    0    0    0    0    0    0    0    0    0    0    0    0    0    0    0    0    0    0    0    0    0    0    0    0    0    0    0    0    0    0    0    0    0    0    0    0    0    0    0    0    0    0    0    0    0    0    3   21   13 
   0    0    0    0    0    0    0    0    0    0    0    0    0    0    0    0    0    0    0    0    0    0    0    0    0    0    0    0    0    0    0    0    0    0    0    0    0    0    0    0    0    0    0    0    0    0    0    0    5   20 
   0    0    0    0    0    0    0    0    0    0    0    0    0    0    0    0    0    0    0    0    0    0    0    0    0    0    0    0    0    0    0    0    0    0    0    0    0    0    0    0    0    0    0    0    0    0    0    0    0   17 
   0    0    0    0    0    0    0    0    0    0    0    0    0    0    0    0    0    0    0    0    0    0    0    0    0    0    0    0    0    0    0    0    0    0    0    0    0    0    0    0    0    0    0    0    0    0    0    0    0    0 
